\ Model TOMinMax-R2D1T1F50Tmax50Iter1
\ LP format - for model browsing. Use MPS format to capture full model detail.
Maximize
  y[T0,K0] + y[T0,K1] - 0.0001 z
Subject To
 c1[K0]: 93.68864399217897 x[T0,D0,K0] + 93.68864399217897 x[T0,S0,K0]
   + 93.68864399217897 x[T0,E0,K0] + 93.68864399217897 x[D0,T0,K0]
   + 93.68864399217897 x[S0,T0,K0] + 93.68864399217897 x[E0,T0,K0] - z
   <= 0
 c1[K1]: 93.68864399217897 x[T0,D0,K1] + 93.68864399217897 x[T0,S0,K1]
   + 93.68864399217897 x[T0,E0,K1] + 93.68864399217897 x[D0,T0,K1]
   + 93.68864399217897 x[S0,T0,K1] + 93.68864399217897 x[E0,T0,K1] - z
   <= 0
 c2_1: x[S0,T0,K0] + x[S0,T0,K1] + x[S0,D0,K0] + x[S0,D0,K1] + x[S0,E0,K0]
   + x[S0,E0,K1] = 2
 c2_2: x[T0,E0,K0] + x[T0,E0,K1] + x[D0,E0,K0] + x[D0,E0,K1] + x[S0,E0,K0]
   + x[S0,E0,K1] = 2
 c3_1[K0]: x[S0,T0,K0] + x[S0,D0,K0] + x[S0,E0,K0] = 1
 c3_1[K1]: x[S0,T0,K1] + x[S0,D0,K1] + x[S0,E0,K1] = 1
 c3_2[K0]: x[T0,S0,K0] + x[D0,S0,K0] + x[E0,S0,K0] = 0
 c3_2[K1]: x[T0,S0,K1] + x[D0,S0,K1] + x[E0,S0,K1] = 0
 c3_3[K0]: x[T0,E0,K0] + x[D0,E0,K0] + x[S0,E0,K0] = 1
 c3_3[K1]: x[T0,E0,K1] + x[D0,E0,K1] + x[S0,E0,K1] = 1
 c3_4[K0]: x[E0,T0,K0] + x[E0,D0,K0] + x[E0,S0,K0] = 0
 c3_4[K1]: x[E0,T0,K1] + x[E0,D0,K1] + x[E0,S0,K1] = 0
 c4[T0]: y[T0,K0] + y[T0,K1] <= 1
 c5_1[T0,K0]: - x[T0,D0,K0] - x[T0,E0,K0] + x[D0,T0,K0] + x[S0,T0,K0] = 0
 c5_1[T0,K1]: - x[T0,D0,K1] - x[T0,E0,K1] + x[D0,T0,K1] + x[S0,T0,K1] = 0
 c5_1[D0,K0]: x[T0,D0,K0] - x[D0,T0,K0] - x[D0,E0,K0] + x[S0,D0,K0] = 0
 c5_1[D0,K1]: x[T0,D0,K1] - x[D0,T0,K1] - x[D0,E0,K1] + x[S0,D0,K1] = 0
 c5_2[T0,K0]: x[D0,T0,K0] + x[S0,T0,K0] + x[E0,T0,K0] - y[T0,K0] = 0
 c5_2[T0,K1]: x[D0,T0,K1] + x[S0,T0,K1] + x[E0,T0,K1] - y[T0,K1] = 0
 c5_3[T0,K0]: x[T0,D0,K0] + x[T0,S0,K0] + x[T0,E0,K0] - y[T0,K0] = 0
 c5_3[T0,K1]: x[T0,D0,K1] + x[T0,S0,K1] + x[T0,E0,K1] - y[T0,K1] = 0
 c6[K0]: - x[T0,D0,K0] - x[T0,S0,K0] - x[T0,E0,K0] - p[T0,S0,K0]
   - p[D0,S0,K0] + p[S0,T0,K0] + p[S0,D0,K0] + p[S0,E0,K0] - p[E0,S0,K0]
   = 0
 c6[K1]: - x[T0,D0,K1] - x[T0,S0,K1] - x[T0,E0,K1] - p[T0,S0,K1]
   - p[D0,S0,K1] + p[S0,T0,K1] + p[S0,D0,K1] + p[S0,E0,K1] - p[E0,S0,K1]
   = 0
 c7[T0,K0]: - x[T0,D0,K0] - x[T0,S0,K0] - x[T0,E0,K0] - p[T0,D0,K0]
   - p[T0,S0,K0] - p[T0,E0,K0] + p[D0,T0,K0] + p[S0,T0,K0] + p[E0,T0,K0]
   = 0
 c7[T0,K1]: - x[T0,D0,K1] - x[T0,S0,K1] - x[T0,E0,K1] - p[T0,D0,K1]
   - p[T0,S0,K1] - p[T0,E0,K1] + p[D0,T0,K1] + p[S0,T0,K1] + p[E0,T0,K1]
   = 0
 c8[D0,K0]: p[T0,D0,K0] - p[D0,T0,K0] - p[D0,S0,K0] - p[D0,E0,K0]
   + p[S0,D0,K0] + p[E0,D0,K0] = 0
 c8[D0,K1]: p[T0,D0,K1] - p[D0,T0,K1] - p[D0,S0,K1] - p[D0,E0,K1]
   + p[S0,D0,K1] + p[E0,D0,K1] = 0
 c9[T0,D0,K0]: - x[T0,D0,K0] + p[T0,D0,K0] <= 0
 c9[T0,D0,K1]: - x[T0,D0,K1] + p[T0,D0,K1] <= 0
 c9[T0,S0,K0]: - x[T0,S0,K0] + p[T0,S0,K0] <= 0
 c9[T0,S0,K1]: - x[T0,S0,K1] + p[T0,S0,K1] <= 0
 c9[T0,E0,K0]: - x[T0,E0,K0] + p[T0,E0,K0] <= 0
 c9[T0,E0,K1]: - x[T0,E0,K1] + p[T0,E0,K1] <= 0
 c9[D0,T0,K0]: - x[D0,T0,K0] + p[D0,T0,K0] <= 0
 c9[D0,T0,K1]: - x[D0,T0,K1] + p[D0,T0,K1] <= 0
 c9[D0,S0,K0]: - x[D0,S0,K0] + p[D0,S0,K0] <= 0
 c9[D0,S0,K1]: - x[D0,S0,K1] + p[D0,S0,K1] <= 0
 c9[D0,E0,K0]: - x[D0,E0,K0] + p[D0,E0,K0] <= 0
 c9[D0,E0,K1]: - x[D0,E0,K1] + p[D0,E0,K1] <= 0
 c9[S0,T0,K0]: - x[S0,T0,K0] + p[S0,T0,K0] <= 0
 c9[S0,T0,K1]: - x[S0,T0,K1] + p[S0,T0,K1] <= 0
 c9[S0,D0,K0]: - x[S0,D0,K0] + p[S0,D0,K0] <= 0
 c9[S0,D0,K1]: - x[S0,D0,K1] + p[S0,D0,K1] <= 0
 c9[S0,E0,K0]: - x[S0,E0,K0] + p[S0,E0,K0] <= 0
 c9[S0,E0,K1]: - x[S0,E0,K1] + p[S0,E0,K1] <= 0
 c9[E0,T0,K0]: - x[E0,T0,K0] + p[E0,T0,K0] <= 0
 c9[E0,T0,K1]: - x[E0,T0,K1] + p[E0,T0,K1] <= 0
 c9[E0,D0,K0]: - x[E0,D0,K0] + p[E0,D0,K0] <= 0
 c9[E0,D0,K1]: - x[E0,D0,K1] + p[E0,D0,K1] <= 0
 c9[E0,S0,K0]: - x[E0,S0,K0] + p[E0,S0,K0] <= 0
 c9[E0,S0,K1]: - x[E0,S0,K1] + p[E0,S0,K1] <= 0
 c12[D0,T0,K0]: 1e+06 x[D0,T0,K0] + r[T0] <= 999956.3113560078
 c12[D0,T0,K1]: 1e+06 x[D0,T0,K1] + r[T0] <= 999956.3113560078
 c12[S0,T0,K0]: 1e+06 x[S0,T0,K0] + r[T0] <= 999956.3113560078
 c12[S0,T0,K1]: 1e+06 x[S0,T0,K1] + r[T0] <= 999956.3113560078
 c13[D0,T0,K0]: - 1e+06 x[D0,T0,K0] + r[T0] >= -1.0000436886439922e+06
 c13[D0,T0,K1]: - 1e+06 x[D0,T0,K1] + r[T0] >= -1.0000436886439922e+06
 c13[S0,T0,K0]: - 1e+06 x[S0,T0,K0] + r[T0] >= -1.0000436886439922e+06
 c13[S0,T0,K1]: - 1e+06 x[S0,T0,K1] + r[T0] >= -1.0000436886439922e+06
 c14[T0,D0,K0]: - 1e+06 x[T0,D0,K0] + r[T0] >= -999906.3113560078
 c14[T0,D0,K1]: - 1e+06 x[T0,D0,K1] + r[T0] >= -999906.3113560078
 c14[T0,E0,K0]: - 1e+06 x[T0,E0,K0] + r[T0] >= -999906.3113560078
 c14[T0,E0,K1]: - 1e+06 x[T0,E0,K1] + r[T0] >= -999906.3113560078
 c15[T0]: r[T0] <= 50
 c16[K0]: 93.68864399217897 x[T0,D0,K0] + 93.68864399217897 x[T0,S0,K0]
   + 93.68864399217897 x[T0,E0,K0] + 93.68864399217897 x[D0,T0,K0]
   + 93.68864399217897 x[S0,T0,K0] + 93.68864399217897 x[E0,T0,K0] <= 50
 c16[K1]: 93.68864399217897 x[T0,D0,K1] + 93.68864399217897 x[T0,S0,K1]
   + 93.68864399217897 x[T0,E0,K1] + 93.68864399217897 x[D0,T0,K1]
   + 93.68864399217897 x[S0,T0,K1] + 93.68864399217897 x[E0,T0,K1] <= 50
Bounds
 x[T0,D0,K0] <= 1
 x[T0,D0,K1] <= 1
 x[T0,S0,K0] <= 1
 x[T0,S0,K1] <= 1
 x[T0,E0,K0] <= 1
 x[T0,E0,K1] <= 1
 x[D0,T0,K0] <= 1
 x[D0,T0,K1] <= 1
 x[D0,S0,K0] <= 1
 x[D0,S0,K1] <= 1
 x[D0,E0,K0] <= 1
 x[D0,E0,K1] <= 1
 x[S0,T0,K0] <= 1
 x[S0,T0,K1] <= 1
 x[S0,D0,K0] <= 1
 x[S0,D0,K1] <= 1
 x[S0,E0,K0] <= 1
 x[S0,E0,K1] <= 1
 x[E0,T0,K0] <= 1
 x[E0,T0,K1] <= 1
 x[E0,D0,K0] <= 1
 x[E0,D0,K1] <= 1
 x[E0,S0,K0] <= 1
 x[E0,S0,K1] <= 1
 r[T0] <= 50
Binaries
 y[T0,K0] y[T0,K1]
Generals
 x[T0,D0,K0] x[T0,D0,K1] x[T0,S0,K0] x[T0,S0,K1] x[T0,E0,K0] x[T0,E0,K1]
 x[D0,T0,K0] x[D0,T0,K1] x[D0,S0,K0] x[D0,S0,K1] x[D0,E0,K0] x[D0,E0,K1]
 x[S0,T0,K0] x[S0,T0,K1] x[S0,D0,K0] x[S0,D0,K1] x[S0,E0,K0] x[S0,E0,K1]
 x[E0,T0,K0] x[E0,T0,K1] x[E0,D0,K0] x[E0,D0,K1] x[E0,S0,K0] x[E0,S0,K1]
 p[T0,D0,K0] p[T0,D0,K1] p[T0,S0,K0] p[T0,S0,K1] p[T0,E0,K0] p[T0,E0,K1]
 p[D0,T0,K0] p[D0,T0,K1] p[D0,S0,K0] p[D0,S0,K1] p[D0,E0,K0] p[D0,E0,K1]
 p[S0,T0,K0] p[S0,T0,K1] p[S0,D0,K0] p[S0,D0,K1] p[S0,E0,K0] p[S0,E0,K1]
 p[E0,T0,K0] p[E0,T0,K1] p[E0,D0,K0] p[E0,D0,K1] p[E0,S0,K0] p[E0,S0,K1]
End
